
%FILE DATA:	Soccer Computational Problem for MiniZinc Models	%
%AUTHOR:	Jack Wall	%
%CONTACT:  	116397063@umail.ucc.ie			%
%LAST UPDATE:	03/03/2020, 12:07:43						%
%DESCRIPTION: 	88 games played with 22 games left				%


n=11; %number of teams

%Games to play
games=[|6,5|7,4|3,1|11,5|5,10|7,2|8,9|2,6|1,6|4,11|8,11|11,8|4,8|8,10|6,4|9,11|4,6|2,10|10,6|2,7|3,9|7,10|];

%Initial points
iPoints=[24,16,33,15,23,12,24,17,26,22,24];

%POSITION CONSTRAINTS
% [|teamID, operator, position|...]
% operators index:
%  1 for =  operator
%  2 for >  operator
%  3 for >= operator
%  4 for <  operator
%  5 for <= operator
positionConstraints=[|3,1,1|11,2,1|10,3,3|9,5,4|];